50
1 51120 48158
2 76258 49215
3 46529 81263
4 84881 47879
5 27157 74898
6 14859 15655
7 44815 27896
8 7034 10863
9 21653 1722
10 2032 11716
11 27502 34590
12 76664 98869
13 32462 16091
14 52779 42242
15 66678 53387
16 4518 17886
17 14732 33376
18 87764 27752
19 13464 22485
20 26382 82915
21 87115 83646
22 95368 5487
23 58341 40057
24 98882 716
25 15654 43724
26 34407 1380
27 1655 35717
28 57127 84067
29 39206 51226
30 56789 32985
31 18049 78030
32 52427 77762
33 69324 41328
34 57379 88901
35 28825 65484
36 46328 17755
37 27913 36121
38 54044 66142
39 19574 19804
40 25373 27359
41 11205 52706
42 25708 48522
43 79648 73039
44 99850 49648
45 33926 45563
46 70190 91485
47 44745 49847
48 23755 85932
49 49042 43061
50 31789 55883